1111100 AB
424 454 484 514 544 574 604 634 664 694 724 754 784 814 844 874 904 934 964 994 1024 1054 1084 1114 1144 1174 1204 1234 1264 1294 1324
1111100 BA
360 390 420 450 480 510 540 570 600 630 660 690 720 750 780 810 840 870 900 930 960 990 1020 1050 1080 1110 1140 1170 1200 1230 1260
0000011 AB
424 484 544 604 664 724 784 844 904 964 1024 1084 1144 1204 1264 1324
0000011 BA
360 420 480 540 600 660 720 780 840 900 960 1020 1080 1140 1200 1260
